nbObj= 100;
Capacity= 138;
Profit =[ 15,2,6,22,7,6,18,13,12,35,2,41,7,23,15,31,7,22,0,20,20,0,4,17,20,15,0,11,24,7,21,20,15,30,25,42,24,6,33,2,21,14,15,2,9,8,14,12,9,1,2,29,5,4,10,30,6,16,23,13,9,10,8,25,3,25,8,19,12,41,29,4,31,21,3,27,5,21,22,3,1,21,18,46,44,29,11,16,18,35,15,13,28,2,4,3,22,7,9,1];
Weight =[ 29,11,30,44,27,10,55,26,24,46,4,58,20,31,29,47,10,44,1,55,27,1,11,38,48,24,3,35,32,10,32,40,44,55,42,54,37,12,56,5,55,19,24,3,41,38,51,28,24,2,3,57,26,10,41,56,25,25,50,34,31,25,12,47,6,32,20,31,21,57,46,20,50,42,11,53,18,45,53,4,4,50,47,59,60,52,39,40,47,52,28,21,37,6,20,11,28,29,20,5];
